&GLOBAL
   PROJECT_NAME              CH5+
   RUN_TYPE                  DRIVER
   PRINT_LEVEL               LOW
 &END GLOBAL
&MOTION

&DRIVER
   HOST driver.ch5.001
   UNIX TRUE
  &END DRIVER
&END MOTION

 &FORCE_EVAL
   METHOD FIST
   &MM
     &FORCEFIELD
        &BEND
           ATOMS H C H
           K 1.0
           KIND LEGENDRE 
           LEGENDRE 0.0190931 0.0139452 0.0673905 0.008298 0.0410469 0.0127439 0.0256356 0.00554186 0.00991002 0.00108887 0.00173833
           THETA0 2.00
        &END BEND
        &BOND
           KIND QUARTIC
           ATOMS C H
           K 0.315808 -0.451771 0.206022
           R0 2.13514
        &END BOND
        &CHARGE
           ATOM C
           CHARGE 0.0
        &END CHARGE
        &CHARGE 
           ATOM H
           CHARGE 0.0
        &END CHARGE
        &NONBONDED
          &LENNARD-JONES
            ATOMS C C
            EPSILON 0.D0
            SIGMA 1.D0
          &END LENNARD-JONES
          &LENNARD-JONES
            ATOMS C H
            EPSILON 0.D0
            SIGMA 1.D0
          &END LENNARD-JONES
          &LENNARD-JONES
            ATOMS H H
            EPSILON 0.D0
            SIGMA 1.D0
          &END LENNARD-JONES
        &END NONBONDED
     &END FORCEFIELD
     &POISSON
       PERIODIC NONE
       &EWALD
         EWALD_TYPE NONE
       &END EWALD
       POISSON_SOLVER PERIODIC
     &END POISSON
     &PRINT
       &FF_INFO ON
         &EACH
           MD 10
         &END EACH
       &END FF_INFO
     &END PRINT
   &END MM
   &SUBSYS
     &CELL
       ABC                   16.D0    16.D0    16.D0
       PERIODIC              NONE
     &END CELL
     &COORD
  C         0.0000000000        0.0000000000        0.0000000000
  H         1.1298793646        0.0000000000        0.0000000000
  H        -0.3550935874        1.0726303769        0.0000000000
  H        -0.5623498407       -0.5610608244       -0.8034928709
  H        -0.5158867801        0.1260633904        0.9972944563
  H        -0.1636419371       -0.7234934097        0.8522945358         
     &END COORD
     &TOPOLOGY
       &GENERATE
         &BOND               ADD
           ATOMS             1  2
         &END BOND
         &BOND               ADD
           ATOMS             1  3
         &END BOND
         &BOND               ADD
           ATOMS             1  4
         &END BOND
         &BOND               ADD
           ATOMS             1  5
         &END BOND
         &BOND               ADD
           ATOMS             1  6
         &END BOND
         &ANGLE              ADD
           ATOMS             2  1  3
         &END ANGLE
         &ANGLE              ADD
           ATOMS             2  1  4
         &END ANGLE
         &ANGLE              ADD
           ATOMS             2  1  5
         &END ANGLE
         &ANGLE              ADD
           ATOMS             2  1  6
         &END ANGLE
         &ANGLE              ADD
           ATOMS             3  1  4
         &END ANGLE
         &ANGLE              ADD
           ATOMS             3  1  5
         &END ANGLE
         &ANGLE              ADD
           ATOMS             3  1  6
         &END ANGLE
         &ANGLE              ADD
           ATOMS             4  1  5
         &END ANGLE
         &ANGLE              ADD
           ATOMS             4  1  6
         &END ANGLE
         &ANGLE              ADD
           ATOMS             5  1  6
         &END ANGLE
       &END GENERATE
     &END TOPOLOGY
   &END SUBSYS
 &END FORCE_EVAL
