units		real
atom_style	full

pair_style lj/cut/tip4p/long 1 2 1 1 0.14714951 8
bond_style      class2
angle_style     harmonic
kspace_style	pppm/tip4p 0.0001

read_data	./data.tip4pf
pair_coeff  * 2 0 0
pair_coeff  1  1  0.1852  3.1589022

#tip4pf bond parameters
bond_coeff      1 0.9419 607.19354  -1388.6516 1852.577
angle_coeff     1 43.93  107.4

neighbor	2.0 bin

timestep	0.00025

fix 1 all ipi addr 32345 unix

run		1000000000

