units		electron
atom_style	full

pair_style      lj/cut/coul/long 17.01
bond_style      harmonic
angle_style     harmonic
kspace_style	ewald 0.0001

read_data	data.ice_long
pair_coeff  * * 0 0
pair_coeff  1  1  0.000295147 5.96946

neighbor	2.0 bin

timestep	0.00025

fix 1 all ipi lammps_ice.long 32345 unix

run		100000000

