units		electron
atom_style	full

pair_style	lj/cut 0.51
bond_style      class2 
angle_style     harmonic

read_data	data.ice_short
# dummy pair coefficients
pair_coeff  * * 0 0

neighbor	2.0 bin

timestep	0.00025

fix 1 all ipi lammps_ice.short 32345 unix

run		100000000

